QPLIB_5881
QBB
maximize
120 # number of variables
2123 # number of quadratic terms in objective
2 1 96.0
3 1 -4.0
7 1 -168.0
8 1 176.0
15 1 24.0
16 1 164.0
19 1 56.0
21 1 56.0
28 1 -148.0
34 1 -108.0
35 1 188.0
42 1 -64.0
47 1 176.0
50 1 160.0
54 1 180.0
55 1 64.0
57 1 196.0
61 1 -108.0
68 1 148.0
69 1 -136.0
71 1 52.0
74 1 132.0
79 1 -144.0
83 1 -76.0
84 1 180.0
92 1 128.0
100 1 76.0
104 1 -136.0
105 1 40.0
106 1 -128.0
109 1 -8.0
118 1 -12.0
119 1 164.0
3 2 -64.0
4 2 96.0
5 2 -4.0
6 2 -196.0
8 2 -92.0
11 2 4.0
12 2 -188.0
16 2 24.0
21 2 -4.0
27 2 80.0
30 2 144.0
32 2 96.0
36 2 -108.0
37 2 -20.0
40 2 -152.0
44 2 -12.0
47 2 -184.0
48 2 8.0
51 2 -20.0
54 2 -88.0
56 2 68.0
57 2 -192.0
58 2 -120.0
60 2 -128.0
61 2 152.0
69 2 -124.0
72 2 200.0
89 2 188.0
92 2 -56.0
103 2 -192.0
107 2 -196.0
112 2 -12.0
117 2 128.0
120 2 -160.0
12 3 200.0
14 3 -108.0
17 3 -20.0
18 3 -132.0
25 3 176.0
29 3 -172.0
30 3 -156.0
33 3 160.0
34 3 -8.0
35 3 -16.0
40 3 -64.0
42 3 100.0
46 3 188.0
47 3 48.0
48 3 -96.0
49 3 96.0
51 3 12.0
53 3 20.0
56 3 -200.0
58 3 -112.0
60 3 12.0
61 3 -44.0
62 3 -80.0
63 3 192.0
71 3 128.0
73 3 -76.0
76 3 -132.0
83 3 -72.0
84 3 -16.0
91 3 -132.0
97 3 172.0
103 3 -176.0
104 3 -32.0
106 3 56.0
6 4 144.0
12 4 -44.0
13 4 176.0
17 4 176.0
19 4 -200.0
24 4 -164.0
33 4 156.0
35 4 -112.0
36 4 100.0
38 4 -76.0
39 4 72.0
44 4 32.0
47 4 28.0
50 4 96.0
56 4 128.0
61 4 -20.0
62 4 200.0
65 4 -132.0
66 4 180.0
67 4 32.0
68 4 -152.0
70 4 8.0
71 4 56.0
76 4 -56.0
77 4 -112.0
83 4 80.0
86 4 80.0
88 4 56.0
95 4 -108.0
96 4 -112.0
98 4 -200.0
102 4 84.0
108 4 132.0
109 4 -76.0
113 4 128.0
117 4 -164.0
119 4 156.0
120 4 84.0
6 5 -128.0
8 5 88.0
9 5 148.0
16 5 -192.0
18 5 -172.0
19 5 -172.0
23 5 100.0
31 5 40.0
32 5 -56.0
33 5 96.0
38 5 100.0
39 5 80.0
41 5 104.0
43 5 -44.0
46 5 -184.0
51 5 -112.0
55 5 36.0
59 5 180.0
66 5 -124.0
67 5 -144.0
71 5 88.0
72 5 -160.0
73 5 -128.0
75 5 96.0
77 5 -108.0
95 5 128.0
96 5 72.0
99 5 144.0
100 5 -92.0
101 5 -4.0
106 5 92.0
108 5 -28.0
110 5 -164.0
112 5 -80.0
115 5 -164.0
116 5 -48.0
119 5 -148.0
7 6 28.0
10 6 56.0
12 6 -128.0
22 6 -88.0
23 6 -180.0
24 6 196.0
26 6 120.0
29 6 -56.0
30 6 -4.0
31 6 -172.0
35 6 -164.0
38 6 96.0
39 6 -152.0
45 6 -60.0
47 6 48.0
52 6 40.0
61 6 -192.0
70 6 -164.0
73 6 -80.0
74 6 -32.0
76 6 172.0
77 6 192.0
79 6 120.0
86 6 -132.0
87 6 140.0
90 6 -104.0
91 6 -152.0
93 6 16.0
96 6 -96.0
97 6 28.0
101 6 -40.0
113 6 36.0
116 6 8.0
120 6 188.0
15 7 180.0
18 7 -172.0
19 7 148.0
22 7 28.0
23 7 -192.0
24 7 68.0
40 7 56.0
42 7 40.0
46 7 -136.0
54 7 -92.0
55 7 -112.0
57 7 168.0
59 7 88.0
61 7 -160.0
63 7 -192.0
66 7 28.0
70 7 -160.0
72 7 -52.0
75 7 192.0
79 7 -108.0
82 7 -152.0
83 7 -176.0
89 7 -44.0
90 7 -92.0
91 7 32.0
92 7 -200.0
100 7 76.0
106 7 96.0
108 7 108.0
112 7 200.0
12 8 -20.0
16 8 20.0
20 8 -56.0
21 8 -136.0
23 8 56.0
33 8 56.0
37 8 36.0
38 8 -68.0
39 8 32.0
42 8 -64.0
52 8 124.0
60 8 136.0
61 8 -12.0
62 8 96.0
65 8 28.0
68 8 28.0
69 8 136.0
70 8 -112.0
80 8 -164.0
89 8 -160.0
100 8 -112.0
101 8 -16.0
105 8 48.0
107 8 -28.0
112 8 -20.0
113 8 -28.0
115 8 -140.0
117 8 -24.0
120 8 44.0
12 9 48.0
15 9 -188.0
21 9 4.0
24 9 -56.0
25 9 92.0
26 9 -120.0
31 9 120.0
32 9 60.0
41 9 -64.0
46 9 76.0
47 9 -192.0
53 9 -4.0
55 9 12.0
58 9 120.0
73 9 24.0
75 9 92.0
85 9 44.0
88 9 -36.0
89 9 44.0
91 9 -4.0
92 9 64.0
101 9 96.0
102 9 156.0
107 9 124.0
113 9 20.0
115 9 -56.0
117 9 40.0
118 9 108.0
12 10 180.0
19 10 160.0
21 10 132.0
23 10 -64.0
26 10 36.0
29 10 88.0
30 10 72.0
32 10 -192.0
36 10 -88.0
37 10 -52.0
43 10 156.0
46 10 8.0
50 10 -52.0
51 10 92.0
54 10 180.0
56 10 -48.0
57 10 132.0
58 10 188.0
65 10 -148.0
66 10 -8.0
67 10 -96.0
68 10 -116.0
79 10 -160.0
80 10 -184.0
81 10 -112.0
83 10 -24.0
86 10 140.0
87 10 -96.0
90 10 -4.0
92 10 64.0
94 10 60.0
95 10 192.0
98 10 16.0
99 10 24.0
100 10 -156.0
102 10 -172.0
109 10 -152.0
110 10 -56.0
113 10 -172.0
115 10 188.0
120 10 72.0
13 11 116.0
20 11 -192.0
25 11 80.0
35 11 64.0
39 11 -76.0
41 11 168.0
46 11 184.0
48 11 -64.0
49 11 188.0
50 11 -20.0
51 11 88.0
53 11 164.0
56 11 -136.0
57 11 -12.0
59 11 -176.0
61 11 4.0
62 11 -76.0
65 11 44.0
66 11 -168.0
68 11 -56.0
70 11 184.0
74 11 72.0
78 11 36.0
79 11 36.0
84 11 -152.0
87 11 136.0
89 11 -196.0
93 11 44.0
103 11 -24.0
104 11 -4.0
106 11 64.0
110 11 200.0
112 11 -200.0
117 11 136.0
119 11 72.0
120 11 -124.0
25 12 4.0
31 12 -152.0
34 12 196.0
37 12 132.0
40 12 188.0
42 12 148.0
44 12 168.0
52 12 -112.0
60 12 28.0
64 12 -108.0
67 12 100.0
74 12 72.0
77 12 32.0
78 12 172.0
86 12 -24.0
87 12 -52.0
89 12 -100.0
93 12 52.0
97 12 -48.0
107 12 196.0
108 12 120.0
111 12 184.0
112 12 -20.0
120 12 24.0
16 13 144.0
23 13 72.0
25 13 20.0
29 13 -36.0
31 13 160.0
38 13 -184.0
40 13 -168.0
45 13 184.0
46 13 -160.0
47 13 80.0
51 13 -28.0
55 13 -68.0
59 13 44.0
67 13 140.0
70 13 56.0
71 13 -64.0
72 13 156.0
73 13 -192.0
74 13 168.0
81 13 200.0
84 13 -84.0
89 13 180.0
90 13 -104.0
91 13 -192.0
92 13 140.0
93 13 8.0
97 13 56.0
98 13 172.0
99 13 172.0
104 13 104.0
113 13 -180.0
118 13 48.0
17 14 108.0
25 14 116.0
28 14 100.0
30 14 160.0
35 14 -164.0
36 14 -88.0
39 14 -72.0
42 14 -180.0
43 14 -8.0
50 14 -140.0
55 14 -52.0
57 14 -120.0
60 14 4.0
61 14 -8.0
65 14 44.0
67 14 -164.0
71 14 -12.0
73 14 68.0
74 14 108.0
77 14 32.0
78 14 112.0
79 14 164.0
81 14 196.0
82 14 60.0
92 14 120.0
94 14 -148.0
96 14 136.0
103 14 52.0
104 14 -100.0
109 14 -68.0
114 14 104.0
115 14 -180.0
119 14 180.0
18 15 -196.0
19 15 -16.0
23 15 -148.0
29 15 -88.0
31 15 -16.0
38 15 -200.0
45 15 64.0
47 15 56.0
50 15 -4.0
52 15 172.0
59 15 16.0
69 15 24.0
71 15 152.0
74 15 80.0
81 15 108.0
83 15 -100.0
85 15 20.0
87 15 12.0
90 15 80.0
92 15 68.0
102 15 4.0
103 15 72.0
108 15 164.0
109 15 72.0
110 15 100.0
113 15 -160.0
114 15 -188.0
118 15 104.0
17 16 188.0
19 16 128.0
20 16 24.0
32 16 -200.0
36 16 160.0
37 16 -156.0
38 16 188.0
41 16 -16.0
42 16 148.0
44 16 -156.0
48 16 -184.0
49 16 -176.0
57 16 -64.0
66 16 -160.0
68 16 4.0
72 16 36.0
75 16 64.0
82 16 -100.0
86 16 -152.0
87 16 -172.0
88 16 -4.0
89 16 144.0
90 16 100.0
94 16 180.0
95 16 72.0
96 16 188.0
120 16 116.0
22 17 -96.0
24 17 -140.0
26 17 -64.0
33 17 28.0
35 17 140.0
36 17 -100.0
37 17 -8.0
39 17 -68.0
41 17 40.0
42 17 -112.0
44 17 -148.0
49 17 116.0
54 17 -92.0
61 17 172.0
62 17 -164.0
73 17 -124.0
75 17 8.0
76 17 136.0
79 17 -140.0
88 17 -180.0
90 17 -32.0
91 17 116.0
92 17 28.0
94 17 -44.0
102 17 180.0
104 17 64.0
106 17 -92.0
107 17 4.0
21 18 -12.0
23 18 -108.0
27 18 136.0
30 18 -168.0
31 18 12.0
35 18 -36.0
37 18 -196.0
38 18 200.0
44 18 -12.0
45 18 68.0
46 18 -140.0
49 18 52.0
51 18 -172.0
54 18 92.0
58 18 -36.0
60 18 -160.0
63 18 64.0
66 18 116.0
67 18 152.0
73 18 -80.0
75 18 -36.0
76 18 196.0
83 18 -60.0
89 18 -68.0
95 18 20.0
96 18 -64.0
97 18 -44.0
103 18 96.0
109 18 164.0
113 18 168.0
114 18 80.0
116 18 -12.0
20 19 188.0
21 19 -144.0
24 19 24.0
25 19 36.0
29 19 132.0
30 19 40.0
32 19 36.0
33 19 -196.0
42 19 -8.0
50 19 32.0
52 19 -104.0
61 19 40.0
67 19 16.0
72 19 -152.0
78 19 -176.0
80 19 -88.0
82 19 -184.0
83 19 -156.0
87 19 176.0
94 19 184.0
98 19 176.0
104 19 -4.0
107 19 128.0
109 19 -60.0
22 20 16.0
30 20 172.0
32 20 -144.0
33 20 -124.0
39 20 -192.0
44 20 -176.0
46 20 -80.0
50 20 -96.0
52 20 -48.0
54 20 84.0
57 20 -200.0
60 20 88.0
63 20 -176.0
72 20 -148.0
75 20 48.0
76 20 -52.0
79 20 168.0
81 20 144.0
83 20 72.0
90 20 -156.0
96 20 -56.0
98 20 76.0
101 20 168.0
102 20 -76.0
104 20 112.0
105 20 124.0
106 20 188.0
108 20 184.0
111 20 152.0
113 20 -88.0
115 20 188.0
117 20 60.0
119 20 12.0
22 21 184.0
25 21 48.0
27 21 64.0
29 21 -76.0
30 21 148.0
38 21 88.0
39 21 -140.0
41 21 24.0
44 21 -104.0
46 21 132.0
47 21 68.0
51 21 180.0
52 21 48.0
54 21 -8.0
56 21 28.0
57 21 140.0
59 21 128.0
60 21 -140.0
65 21 -144.0
78 21 -144.0
79 21 196.0
81 21 -64.0
88 21 -136.0
93 21 120.0
94 21 20.0
95 21 188.0
98 21 -196.0
101 21 72.0
109 21 -184.0
111 21 140.0
119 21 -20.0
23 22 40.0
29 22 68.0
41 22 124.0
42 22 164.0
43 22 112.0
49 22 68.0
50 22 -200.0
51 22 144.0
52 22 132.0
53 22 -156.0
56 22 80.0
63 22 200.0
64 22 16.0
66 22 176.0
67 22 160.0
70 22 184.0
71 22 -56.0
72 22 172.0
80 22 4.0
81 22 116.0
85 22 -108.0
87 22 160.0
89 22 124.0
91 22 112.0
95 22 -148.0
99 22 -16.0
100 22 192.0
101 22 -192.0
105 22 80.0
106 22 44.0
112 22 -128.0
113 22 -192.0
116 22 -184.0
30 23 176.0
31 23 -20.0
36 23 116.0
38 23 -24.0
40 23 36.0
41 23 176.0
42 23 -152.0
43 23 12.0
46 23 -132.0
48 23 124.0
49 23 -28.0
51 23 -136.0
52 23 56.0
53 23 -56.0
54 23 180.0
56 23 16.0
62 23 84.0
64 23 -120.0
67 23 80.0
68 23 200.0
69 23 -152.0
70 23 -20.0
71 23 -88.0
72 23 -24.0
75 23 -164.0
78 23 196.0
81 23 104.0
83 23 -136.0
84 23 40.0
86 23 -152.0
88 23 116.0
89 23 -12.0
92 23 120.0
100 23 -156.0
102 23 -76.0
105 23 -40.0
109 23 -8.0
111 23 -72.0
114 23 -64.0
27 24 144.0
40 24 -192.0
42 24 40.0
47 24 108.0
48 24 -180.0
51 24 -92.0
54 24 -196.0
62 24 -96.0
67 24 -44.0
68 24 72.0
72 24 72.0
75 24 156.0
81 24 80.0
86 24 -176.0
87 24 -104.0
93 24 -108.0
94 24 -140.0
97 24 -132.0
98 24 80.0
99 24 -48.0
101 24 152.0
105 24 -52.0
107 24 -120.0
120 24 -136.0
27 25 -16.0
32 25 64.0
34 25 144.0
37 25 176.0
42 25 -44.0
46 25 184.0
47 25 -92.0
51 25 -20.0
53 25 -96.0
56 25 132.0
60 25 -112.0
63 25 -52.0
64 25 180.0
65 25 -152.0
67 25 -136.0
68 25 136.0
77 25 -104.0
79 25 -72.0
81 25 48.0
86 25 4.0
89 25 24.0
90 25 -104.0
92 25 144.0
95 25 32.0
97 25 -104.0
98 25 -88.0
99 25 128.0
105 25 72.0
108 25 -136.0
109 25 124.0
110 25 60.0
111 25 152.0
113 25 -52.0
114 25 -104.0
27 26 92.0
28 26 -120.0
34 26 -104.0
36 26 -192.0
38 26 112.0
40 26 -104.0
42 26 -108.0
45 26 52.0
48 26 104.0
54 26 140.0
58 26 88.0
59 26 -184.0
61 26 32.0
66 26 8.0
68 26 -112.0
75 26 -184.0
79 26 96.0
80 26 56.0
85 26 -128.0
92 26 -92.0
93 26 -88.0
101 26 -36.0
102 26 -144.0
105 26 144.0
107 26 -200.0
109 26 -188.0
111 26 -164.0
112 26 -200.0
113 26 8.0
28 27 -40.0
37 27 84.0
38 27 112.0
40 27 136.0
48 27 -180.0
50 27 -128.0
51 27 8.0
52 27 -172.0
53 27 -68.0
55 27 40.0
56 27 96.0
57 27 44.0
58 27 -72.0
59 27 140.0
61 27 -152.0
62 27 132.0
63 27 -148.0
72 27 -96.0
74 27 -108.0
78 27 120.0
80 27 -144.0
83 27 80.0
86 27 64.0
88 27 -200.0
90 27 40.0
91 27 -124.0
92 27 -80.0
93 27 -56.0
98 27 -36.0
102 27 -100.0
104 27 196.0
106 27 -184.0
107 27 88.0
109 27 84.0
110 27 84.0
112 27 -40.0
114 27 -104.0
117 27 -88.0
120 27 -112.0
31 28 44.0
32 28 84.0
34 28 -32.0
35 28 68.0
39 28 -84.0
41 28 -52.0
42 28 84.0
47 28 120.0
49 28 196.0
50 28 -140.0
51 28 -108.0
58 28 188.0
59 28 -76.0
60 28 -12.0
69 28 -32.0
70 28 -68.0
71 28 100.0
74 28 92.0
75 28 164.0
77 28 -168.0
78 28 -104.0
91 28 76.0
98 28 -4.0
99 28 68.0
108 28 192.0
112 28 -36.0
113 28 152.0
114 28 -32.0
31 29 -56.0
34 29 192.0
35 29 24.0
36 29 -76.0
41 29 16.0
44 29 -172.0
49 29 -100.0
50 29 160.0
56 29 144.0
58 29 40.0
59 29 148.0
66 29 -64.0
71 29 -140.0
72 29 -72.0
76 29 -36.0
77 29 56.0
78 29 -88.0
79 29 -148.0
80 29 128.0
83 29 -96.0
84 29 -172.0
96 29 100.0
97 29 -156.0
99 29 -124.0
100 29 160.0
102 29 -156.0
104 29 124.0
110 29 -92.0
111 29 96.0
35 30 68.0
39 30 -68.0
45 30 136.0
50 30 72.0
51 30 -188.0
58 30 188.0
65 30 -140.0
70 30 44.0
73 30 -176.0
74 30 184.0
75 30 -24.0
79 30 24.0
84 30 128.0
86 30 -72.0
91 30 -68.0
95 30 72.0
97 30 16.0
100 30 88.0
102 30 -80.0
108 30 172.0
116 30 68.0
118 30 -60.0
120 30 -96.0
33 31 -136.0
37 31 -20.0
40 31 -164.0
41 31 108.0
43 31 -136.0
49 31 -68.0
50 31 -172.0
53 31 -68.0
58 31 180.0
59 31 172.0
61 31 -56.0
64 31 -144.0
66 31 72.0
67 31 4.0
69 31 -156.0
71 31 124.0
74 31 100.0
77 31 4.0
79 31 -112.0
82 31 44.0
86 31 72.0
88 31 -68.0
92 31 120.0
93 31 104.0
96 31 -72.0
100 31 64.0
105 31 -116.0
107 31 -96.0
115 31 68.0
118 31 108.0
119 31 200.0
33 32 96.0
38 32 -164.0
41 32 140.0
42 32 176.0
46 32 -80.0
49 32 -84.0
51 32 -96.0
68 32 72.0
75 32 140.0
76 32 152.0
80 32 4.0
82 32 -24.0
86 32 -156.0
90 32 60.0
98 32 128.0
99 32 -120.0
108 32 -196.0
113 32 124.0
114 32 176.0
117 32 48.0
120 32 -192.0
35 33 -116.0
42 33 -148.0
44 33 48.0
45 33 36.0
47 33 -188.0
48 33 -20.0
52 33 -160.0
59 33 4.0
60 33 -164.0
63 33 -184.0
68 33 100.0
71 33 -172.0
74 33 -88.0
76 33 28.0
77 33 196.0
79 33 -28.0
80 33 160.0
84 33 -168.0
86 33 88.0
92 33 144.0
96 33 92.0
98 33 96.0
102 33 -60.0
110 33 200.0
114 33 76.0
116 33 196.0
120 33 180.0
35 34 -124.0
44 34 64.0
45 34 -24.0
46 34 -112.0
49 34 -116.0
55 34 -64.0
68 34 4.0
72 34 104.0
76 34 16.0
78 34 84.0
81 34 40.0
97 34 -80.0
98 34 184.0
100 34 116.0
101 34 52.0
107 34 -88.0
113 34 -24.0
116 34 24.0
36 35 136.0
41 35 -80.0
42 35 76.0
43 35 -36.0
47 35 64.0
49 35 20.0
56 35 64.0
57 35 -124.0
58 35 -112.0
59 35 136.0
60 35 -76.0
65 35 -152.0
67 35 40.0
68 35 -68.0
73 35 -32.0
78 35 -80.0
83 35 -28.0
88 35 -12.0
93 35 64.0
99 35 176.0
102 35 144.0
104 35 -200.0
113 35 104.0
118 35 68.0
119 35 -140.0
38 36 28.0
41 36 -148.0
43 36 176.0
44 36 -144.0
47 36 116.0
48 36 -12.0
49 36 -188.0
50 36 -36.0
54 36 -8.0
55 36 28.0
63 36 -28.0
69 36 -104.0
70 36 32.0
72 36 -144.0
75 36 -12.0
80 36 108.0
92 36 140.0
96 36 -84.0
99 36 -128.0
106 36 44.0
110 36 108.0
114 36 -32.0
38 37 188.0
42 37 108.0
43 37 -116.0
45 37 76.0
50 37 -76.0
54 37 -108.0
56 37 28.0
57 37 -64.0
60 37 188.0
62 37 -132.0
68 37 -28.0
71 37 -116.0
73 37 16.0
76 37 -64.0
79 37 -104.0
81 37 96.0
82 37 -76.0
85 37 -156.0
89 37 -92.0
90 37 -84.0
98 37 136.0
106 37 144.0
108 37 -20.0
110 37 -76.0
112 37 -196.0
115 37 -56.0
118 37 88.0
119 37 -148.0
40 38 -80.0
43 38 -24.0
46 38 -136.0
51 38 100.0
52 38 4.0
63 38 76.0
72 38 -20.0
77 38 112.0
78 38 -84.0
82 38 -52.0
84 38 116.0
91 38 100.0
95 38 -100.0
102 38 96.0
108 38 -8.0
109 38 100.0
111 38 40.0
119 38 144.0
40 39 -172.0
46 39 12.0
53 39 44.0
58 39 52.0
59 39 136.0
61 39 -84.0
62 39 80.0
65 39 104.0
69 39 -48.0
71 39 -156.0
74 39 164.0
83 39 152.0
85 39 -64.0
86 39 88.0
87 39 -40.0
88 39 20.0
90 39 -120.0
92 39 120.0
94 39 76.0
96 39 160.0
102 39 -192.0
103 39 -52.0
105 39 -132.0
108 39 176.0
42 40 -180.0
46 40 -96.0
47 40 64.0
49 40 -68.0
52 40 8.0
60 40 28.0
63 40 128.0
75 40 24.0
80 40 16.0
84 40 200.0
85 40 -160.0
89 40 -128.0
92 40 -148.0
93 40 184.0
95 40 192.0
102 40 -104.0
105 40 -88.0
106 40 -36.0
115 40 112.0
116 40 -68.0
118 40 100.0
42 41 84.0
43 41 -8.0
44 41 180.0
48 41 -192.0
56 41 36.0
59 41 88.0
61 41 152.0
65 41 -104.0
66 41 104.0
67 41 -160.0
68 41 92.0
71 41 132.0
72 41 168.0
75 41 -188.0
77 41 -112.0
80 41 136.0
81 41 -92.0
83 41 120.0
84 41 -40.0
85 41 -76.0
88 41 -132.0
89 41 -64.0
94 41 -180.0
98 41 -52.0
99 41 -40.0
100 41 -72.0
101 41 -160.0
105 41 88.0
107 41 44.0
109 41 -52.0
112 41 -176.0
113 41 44.0
44 42 -144.0
45 42 -176.0
48 42 -104.0
52 42 188.0
53 42 16.0
58 42 -120.0
61 42 -192.0
63 42 92.0
69 42 -168.0
72 42 48.0
79 42 -24.0
81 42 -128.0
86 42 8.0
88 42 176.0
91 42 -44.0
97 42 48.0
100 42 -52.0
101 42 -20.0
115 42 28.0
116 42 -128.0
51 43 24.0
61 43 140.0
63 43 96.0
67 43 -40.0
70 43 200.0
72 43 100.0
73 43 -76.0
75 43 -180.0
79 43 -196.0
81 43 180.0
84 43 -56.0
89 43 -88.0
90 43 92.0
101 43 -120.0
102 43 -112.0
103 43 -76.0
112 43 156.0
114 43 -168.0
116 43 -12.0
118 43 -36.0
119 43 -172.0
47 44 -200.0
50 44 8.0
51 44 -80.0
53 44 -36.0
55 44 40.0
56 44 120.0
61 44 168.0
72 44 40.0
73 44 140.0
75 44 192.0
80 44 116.0
83 44 -192.0
85 44 -40.0
86 44 156.0
89 44 84.0
91 44 116.0
95 44 184.0
101 44 4.0
102 44 144.0
107 44 -68.0
109 44 56.0
111 44 144.0
112 44 -76.0
113 44 -104.0
120 44 -68.0
51 45 4.0
54 45 72.0
57 45 -124.0
58 45 132.0
59 45 156.0
60 45 -196.0
67 45 108.0
69 45 -140.0
70 45 108.0
71 45 -4.0
74 45 168.0
76 45 104.0
82 45 -76.0
84 45 184.0
86 45 64.0
88 45 112.0
89 45 -140.0
91 45 148.0
94 45 16.0
100 45 -100.0
106 45 -92.0
107 45 -104.0
110 45 132.0
112 45 136.0
113 45 -136.0
119 45 112.0
47 46 52.0
48 46 152.0
52 46 -100.0
53 46 176.0
56 46 -180.0
57 46 152.0
59 46 -184.0
61 46 112.0
62 46 -196.0
69 46 160.0
76 46 40.0
80 46 100.0
81 46 -180.0
84 46 156.0
85 46 -156.0
86 46 -136.0
90 46 -152.0
93 46 -88.0
98 46 -200.0
100 46 164.0
106 46 100.0
111 46 -76.0
114 46 48.0
115 46 68.0
50 47 -180.0
56 47 -168.0
60 47 72.0
63 47 88.0
78 47 -28.0
86 47 -180.0
88 47 124.0
91 47 -84.0
95 47 152.0
97 47 -140.0
100 47 -160.0
104 47 -176.0
106 47 -28.0
108 47 -168.0
112 47 -148.0
117 47 -92.0
119 47 40.0
49 48 -8.0
53 48 -52.0
56 48 64.0
60 48 24.0
64 48 52.0
69 48 -52.0
71 48 64.0
72 48 52.0
73 48 -140.0
77 48 68.0
80 48 200.0
84 48 60.0
88 48 60.0
93 48 40.0
95 48 68.0
96 48 60.0
100 48 188.0
101 48 -60.0
106 48 -176.0
109 48 -56.0
112 48 128.0
113 48 -96.0
118 48 -156.0
50 49 80.0
52 49 -156.0
53 49 -108.0
56 49 72.0
59 49 36.0
60 49 64.0
62 49 188.0
63 49 68.0
66 49 112.0
73 49 -88.0
83 49 152.0
85 49 -172.0
86 49 4.0
90 49 184.0
91 49 176.0
94 49 -112.0
99 49 -112.0
103 49 -132.0
105 49 164.0
107 49 64.0
110 49 -192.0
117 49 -52.0
120 49 -152.0
53 50 164.0
54 50 -180.0
62 50 -4.0
65 50 -68.0
71 50 64.0
73 50 192.0
76 50 -104.0
77 50 -64.0
86 50 -176.0
87 50 200.0
88 50 -40.0
92 50 -164.0
96 50 -112.0
100 50 -76.0
112 50 12.0
114 50 -72.0
61 51 32.0
62 51 -124.0
64 51 180.0
66 51 180.0
70 51 128.0
82 51 -124.0
84 51 -24.0
85 51 -12.0
86 51 -48.0
100 51 52.0
101 51 -4.0
111 51 104.0
115 51 84.0
54 52 76.0
60 52 52.0
61 52 -164.0
66 52 176.0
72 52 72.0
77 52 -144.0
81 52 -128.0
84 52 176.0
86 52 68.0
87 52 148.0
92 52 -192.0
94 52 88.0
95 52 -68.0
96 52 -48.0
104 52 -84.0
105 52 72.0
107 52 -60.0
110 52 -104.0
111 52 88.0
113 52 120.0
117 52 172.0
56 53 140.0
57 53 168.0
59 53 -196.0
71 53 -32.0
73 53 -4.0
75 53 -152.0
77 53 72.0
81 53 -60.0
83 53 200.0
84 53 -180.0
87 53 120.0
92 53 -56.0
96 53 -168.0
98 53 -80.0
100 53 68.0
102 53 -192.0
104 53 108.0
107 53 168.0
108 53 -172.0
113 53 -28.0
119 53 24.0
56 54 -4.0
59 54 -152.0
60 54 4.0
67 54 -28.0
68 54 164.0
74 54 -108.0
75 54 -84.0
78 54 64.0
82 54 156.0
88 54 -8.0
92 54 -124.0
101 54 -84.0
102 54 -8.0
104 54 12.0
108 54 -200.0
110 54 -8.0
116 54 -100.0
61 55 4.0
64 55 -196.0
68 55 -12.0
69 55 -144.0
70 55 88.0
75 55 -172.0
78 55 120.0
82 55 56.0
87 55 -92.0
91 55 200.0
92 55 -148.0
93 55 -120.0
94 55 -32.0
103 55 96.0
104 55 -184.0
105 55 168.0
106 55 -64.0
109 55 156.0
113 55 48.0
114 55 -184.0
116 55 -12.0
120 55 -96.0
58 56 188.0
59 56 -100.0
62 56 -176.0
68 56 44.0
73 56 16.0
75 56 124.0
76 56 -120.0
78 56 164.0
87 56 132.0
89 56 -20.0
92 56 -16.0
97 56 32.0
98 56 160.0
100 56 -108.0
102 56 144.0
104 56 -196.0
114 56 -16.0
116 56 -200.0
120 56 52.0
70 57 -156.0
74 57 48.0
75 57 -132.0
76 57 64.0
79 57 -52.0
81 57 -28.0
85 57 -188.0
86 57 -128.0
91 57 36.0
97 57 -120.0
99 57 64.0
101 57 -124.0
104 57 32.0
107 57 164.0
109 57 -100.0
111 57 -12.0
112 57 -44.0
116 57 12.0
117 57 72.0
118 57 -68.0
65 58 -164.0
66 58 116.0
67 58 68.0
73 58 184.0
76 58 -56.0
77 58 -104.0
78 58 168.0
82 58 -176.0
83 58 4.0
84 58 -36.0
86 58 -8.0
87 58 -164.0
98 58 -128.0
101 58 4.0
106 58 40.0
107 58 28.0
108 58 72.0
115 58 -128.0
116 58 -20.0
119 58 -76.0
60 59 48.0
67 59 -164.0
69 59 -24.0
71 59 -124.0
77 59 184.0
81 59 -180.0
82 59 160.0
86 59 -128.0
87 59 68.0
89 59 -36.0
91 59 192.0
96 59 120.0
100 59 -140.0
101 59 112.0
109 59 164.0
110 59 144.0
116 59 156.0
117 59 -108.0
118 59 -188.0
119 59 -112.0
61 60 156.0
62 60 -156.0
69 60 40.0
70 60 128.0
71 60 192.0
72 60 -28.0
79 60 -112.0
80 60 4.0
90 60 148.0
91 60 160.0
94 60 -16.0
99 60 108.0
100 60 72.0
101 60 -84.0
109 60 -48.0
64 61 48.0
67 61 -132.0
69 61 84.0
73 61 180.0
74 61 144.0
75 61 -176.0
80 61 -104.0
82 61 124.0
85 61 -196.0
87 61 96.0
91 61 28.0
92 61 -152.0
96 61 -84.0
100 61 -196.0
102 61 -116.0
103 61 -80.0
105 61 -152.0
108 61 -40.0
109 61 -188.0
112 61 -40.0
113 61 140.0
114 61 160.0
65 62 196.0
67 62 -200.0
68 62 16.0
69 62 136.0
71 62 28.0
74 62 64.0
76 62 -108.0
84 62 -100.0
86 62 -12.0
89 62 68.0
91 62 -88.0
94 62 4.0
101 62 -116.0
105 62 -32.0
107 62 -172.0
109 62 -28.0
114 62 160.0
115 62 24.0
117 62 188.0
119 62 -192.0
70 63 -88.0
72 63 -132.0
74 63 184.0
76 63 -132.0
81 63 -168.0
88 63 148.0
89 63 -200.0
91 63 -120.0
100 63 132.0
101 63 -44.0
103 63 -128.0
107 63 168.0
112 63 164.0
114 63 96.0
117 63 140.0
119 63 -176.0
68 64 36.0
73 64 152.0
76 64 -64.0
84 64 -36.0
91 64 -44.0
92 64 -184.0
94 64 -188.0
97 64 136.0
103 64 -68.0
108 64 184.0
112 64 136.0
70 65 56.0
76 65 124.0
79 65 36.0
81 65 40.0
82 65 68.0
86 65 -24.0
87 65 44.0
89 65 -36.0
93 65 -100.0
95 65 -32.0
96 65 128.0
104 65 72.0
108 65 4.0
111 65 -8.0
114 65 188.0
120 65 -116.0
69 66 -68.0
79 66 124.0
80 66 -24.0
86 66 -192.0
91 66 -164.0
96 66 -60.0
101 66 -20.0
113 66 52.0
68 67 100.0
70 67 -16.0
73 67 -120.0
86 67 132.0
90 67 -136.0
93 67 -40.0
96 67 -184.0
98 67 48.0
101 67 -52.0
103 67 160.0
104 67 -36.0
105 67 132.0
107 67 -180.0
109 67 -120.0
114 67 -144.0
119 67 -8.0
74 68 200.0
75 68 76.0
78 68 128.0
83 68 152.0
84 68 56.0
89 68 68.0
91 68 4.0
103 68 80.0
110 68 -188.0
111 68 -24.0
115 68 -28.0
118 68 196.0
119 68 132.0
120 68 156.0
73 69 28.0
74 69 -24.0
76 69 -4.0
80 69 -28.0
81 69 8.0
82 69 -36.0
87 69 -180.0
88 69 -128.0
89 69 -140.0
90 69 -116.0
94 69 52.0
103 69 -176.0
105 69 -180.0
106 69 32.0
112 69 196.0
113 69 -120.0
114 69 -68.0
116 69 -168.0
119 69 -180.0
75 70 80.0
77 70 -12.0
78 70 -120.0
80 70 -16.0
81 70 -16.0
83 70 -20.0
86 70 -164.0
92 70 -136.0
93 70 92.0
94 70 84.0
102 70 8.0
108 70 -64.0
110 70 -16.0
112 70 -24.0
117 70 56.0
119 70 104.0
120 70 -32.0
75 71 140.0
90 71 -140.0
94 71 -72.0
98 71 96.0
109 71 -156.0
113 71 -144.0
120 71 -160.0
76 72 -104.0
77 72 4.0
80 72 -64.0
81 72 168.0
88 72 16.0
91 72 128.0
94 72 -92.0
98 72 168.0
100 72 -164.0
101 72 -60.0
103 72 -96.0
104 72 192.0
112 72 -200.0
113 72 -136.0
119 72 32.0
76 73 116.0
77 73 -92.0
83 73 124.0
84 73 36.0
89 73 -112.0
90 73 -60.0
92 73 -120.0
96 73 -176.0
98 73 -56.0
99 73 -136.0
108 73 -56.0
109 73 20.0
114 73 -168.0
115 73 -132.0
76 74 120.0
78 74 68.0
80 74 -192.0
92 74 8.0
93 74 200.0
97 74 100.0
100 74 96.0
101 74 -120.0
102 74 60.0
110 74 -64.0
113 74 12.0
114 74 -164.0
79 75 -8.0
80 75 84.0
85 75 36.0
91 75 124.0
94 75 48.0
98 75 144.0
101 75 -104.0
102 75 40.0
107 75 28.0
108 75 16.0
110 75 -28.0
112 75 -168.0
113 75 28.0
114 75 8.0
115 75 44.0
120 75 28.0
83 76 -72.0
86 76 -8.0
87 76 24.0
89 76 -136.0
90 76 -16.0
91 76 60.0
94 76 -68.0
100 76 160.0
101 76 104.0
106 76 92.0
112 76 -168.0
113 76 112.0
120 76 20.0
82 77 -132.0
84 77 172.0
88 77 120.0
91 77 88.0
92 77 -152.0
95 77 180.0
111 77 8.0
113 77 -64.0
114 77 96.0
115 77 -100.0
118 77 164.0
120 77 -16.0
79 78 -12.0
82 78 164.0
86 78 52.0
93 78 -180.0
101 78 -72.0
103 78 -72.0
106 78 -96.0
107 78 -84.0
109 78 -28.0
116 78 -24.0
118 78 -52.0
80 79 -120.0
88 79 -96.0
90 79 -132.0
96 79 56.0
103 79 160.0
111 79 176.0
112 79 -80.0
113 79 20.0
119 79 -180.0
85 80 88.0
87 80 8.0
90 80 -40.0
93 80 -60.0
96 80 -124.0
98 80 -96.0
111 80 120.0
117 80 172.0
83 81 -192.0
84 81 -184.0
92 81 -84.0
98 81 16.0
102 81 68.0
104 81 -104.0
106 81 -48.0
112 81 60.0
115 81 80.0
119 81 -32.0
85 82 184.0
89 82 128.0
90 82 -156.0
92 82 -64.0
94 82 148.0
95 82 32.0
100 82 176.0
101 82 136.0
102 82 88.0
103 82 76.0
104 82 148.0
107 82 -48.0
108 82 140.0
109 82 -96.0
110 82 32.0
113 82 172.0
115 82 -4.0
116 82 148.0
86 83 -16.0
87 83 -100.0
91 83 -44.0
93 83 -84.0
94 83 -176.0
97 83 104.0
98 83 44.0
104 83 -80.0
105 83 76.0
114 83 188.0
115 83 148.0
118 83 44.0
88 84 -48.0
94 84 -168.0
97 84 12.0
101 84 72.0
104 84 -64.0
108 84 192.0
117 84 -156.0
87 85 -148.0
90 85 152.0
97 85 148.0
98 85 140.0
99 85 -192.0
100 85 16.0
102 85 112.0
104 85 192.0
111 85 -156.0
114 85 -180.0
116 85 164.0
118 85 132.0
87 86 20.0
91 86 180.0
95 86 -76.0
96 86 132.0
98 86 176.0
108 86 -128.0
114 86 -8.0
118 86 196.0
90 87 -172.0
95 87 72.0
97 87 44.0
98 87 172.0
99 87 48.0
101 87 64.0
104 87 -160.0
109 87 4.0
115 87 -56.0
120 87 -32.0
100 88 76.0
101 88 -68.0
106 88 -140.0
108 88 -156.0
109 88 -148.0
113 88 156.0
114 88 -108.0
115 88 84.0
92 89 32.0
93 89 8.0
97 89 48.0
101 89 192.0
102 89 -96.0
104 89 200.0
111 89 104.0
112 89 -132.0
114 89 -52.0
119 89 180.0
94 90 108.0
95 90 12.0
96 90 96.0
98 90 160.0
99 90 192.0
118 90 36.0
120 90 192.0
94 91 -184.0
97 91 36.0
103 91 -160.0
105 91 -108.0
108 91 96.0
113 91 52.0
115 91 -192.0
117 91 -44.0
119 91 52.0
94 92 -80.0
97 92 -196.0
98 92 -40.0
102 92 56.0
105 92 -160.0
109 92 12.0
112 92 184.0
114 92 180.0
117 92 -100.0
120 92 -72.0
97 93 60.0
99 93 52.0
100 93 124.0
101 93 -88.0
108 93 -56.0
109 93 -140.0
113 93 160.0
117 93 -76.0
119 93 88.0
97 94 -84.0
101 94 -56.0
102 94 184.0
105 94 -180.0
107 94 -20.0
110 94 12.0
112 94 120.0
118 94 -64.0
120 94 -24.0
96 95 -40.0
99 95 116.0
100 95 188.0
108 95 164.0
109 95 100.0
111 95 180.0
118 95 -52.0
120 95 140.0
97 96 80.0
100 96 -52.0
103 96 12.0
104 96 12.0
108 96 52.0
109 96 96.0
114 96 -4.0
116 96 -52.0
118 96 200.0
102 97 144.0
104 97 -108.0
108 97 32.0
109 97 108.0
111 97 8.0
115 97 -104.0
116 97 132.0
99 98 128.0
100 98 -44.0
102 98 -112.0
103 98 84.0
105 98 -40.0
106 98 152.0
109 98 -188.0
116 98 128.0
118 98 -172.0
103 99 -92.0
109 99 -180.0
113 99 72.0
114 99 -96.0
118 99 28.0
104 100 144.0
106 100 -32.0
107 100 52.0
108 100 168.0
109 100 8.0
111 100 56.0
115 100 48.0
118 100 80.0
120 100 -76.0
102 101 -56.0
106 101 184.0
107 101 -184.0
109 101 16.0
113 101 72.0
114 101 24.0
116 101 -144.0
106 102 -28.0
107 102 -32.0
112 102 80.0
114 102 -108.0
117 102 56.0
119 102 8.0
104 103 176.0
109 103 184.0
112 103 -24.0
114 103 -188.0
119 103 -148.0
109 104 132.0
110 104 -108.0
112 104 -76.0
113 104 -96.0
115 104 196.0
119 104 48.0
107 105 20.0
108 105 192.0
110 105 -56.0
113 105 24.0
114 105 168.0
117 105 48.0
109 106 84.0
110 106 -116.0
115 106 -196.0
116 106 -24.0
117 106 88.0
118 106 -84.0
109 107 44.0
111 107 136.0
120 107 168.0
109 108 4.0
116 108 -36.0
118 108 144.0
119 108 -108.0
110 109 -96.0
113 109 -32.0
111 110 -56.0
113 110 4.0
112 111 -36.0
113 111 -148.0
114 111 188.0
115 111 -36.0
116 111 -48.0
117 111 -48.0
120 111 140.0
114 112 120.0
116 112 156.0
115 113 44.0
117 113 -148.0
115 114 -60.0
119 114 168.0
120 114 -188.0
116 115 196.0
117 115 -188.0
117 116 88.0
120 116 100.0
119 117 -28.0
120 118 -156.0
27.0 # default value for linear coefficients in objective
118 # number of non-default linear coefficients in objective
1 100.0
2 6.0
3 71.0
4 39.0
5 -94.0
6 40.0
7 -55.0
8 100.0
9 96.0
10 -5.0
11 -61.0
12 -13.0
13 78.0
14 -41.0
15 68.0
16 -66.0
17 -37.0
18 15.0
19 76.0
20 -32.0
21 21.0
22 88.0
23 16.0
24 78.0
25 -61.0
26 -8.0
27 -74.0
28 -34.0
29 -67.0
30 58.0
31 -77.0
32 30.0
33 73.0
34 53.0
35 34.0
36 -9.0
37 21.0
38 -41.0
39 -84.0
40 57.0
41 39.0
42 -61.0
43 -14.0
44 -100.0
45 42.0
46 -30.0
47 38.0
48 -54.0
49 41.0
50 67.0
51 -70.0
52 -31.0
53 -34.0
54 60.0
55 -20.0
56 87.0
57 1.0
58 92.0
59 -21.0
60 -64.0
61 -6.0
62 43.0
63 -41.0
64 28.0
65 -23.0
66 -47.0
67 -37.0
68 -86.0
69 -71.0
70 -68.0
71 -97.0
72 -20.0
73 -62.0
74 63.0
75 28.0
76 92.0
77 93.0
78 69.0
79 19.0
80 6.0
81 -2.0
82 -63.0
83 -10.0
84 25.0
85 -22.0
86 41.0
87 -64.0
88 -33.0
89 93.0
90 84.0
91 12.0
92 20.0
93 -84.0
94 -70.0
95 96.0
96 -28.0
97 59.0
98 -51.0
99 -33.0
100 85.0
101 -9.0
102 76.0
103 -3.0
104 -88.0
105 -25.0
108 -44.0
109 -41.0
110 -68.0
111 35.0
112 -29.0
113 24.0
114 94.0
115 55.0
116 90.0
117 24.0
118 31.0
119 -72.0
120 43.0
0.0 # objective constant
1.79769313486232E+308 # value for infinity
0.0 # default variable primal value in starting point
0 # number of non-default variable primal values in starting point
0.0 # default variable bound dual value in starting point
0 # number of non-default variable bound dual values in starting point
0 # number of non-default variable names
0 # number of non-default constraint names
